<?xml version = "1.0" standalone="yes"?>
<!-- This file has been generated by DOcplex version 2.23.222  -->
<CPLEXSolution version="1.0">
 <header
   problemName="CVRP"
   objectiveValue="16111.3"
  />
 <variables>
  <variable name="x_0_2" index="1" value="1.00000"/>
  <variable name="x_0_3" index="2" value="1.00000"/>
  <variable name="x_0_4" index="3" value="1.00000"/>
  <variable name="x_0_9" index="8" value="1.00000"/>
  <variable name="x_0_10" index="9" value="1.00000"/>
  <variable name="x_0_11" index="10" value="1.00000"/>
  <variable name="x_0_13" index="12" value="1.00000"/>
  <variable name="x_0_15" index="14" value="1.00000"/>
  <variable name="x_0_16" index="15" value="1.00000"/>
  <variable name="x_0_18" index="17" value="1.00000"/>
  <variable name="x_1_0" index="18" value="1.00000"/>
  <variable name="x_2_14" index="49" value="1.00000"/>
  <variable name="x_3_8" index="61" value="1.00000"/>
  <variable name="x_4_1" index="73" value="1.00000"/>
  <variable name="x_5_7" index="96" value="1.00000"/>
  <variable name="x_6_0" index="108" value="1.00000"/>
  <variable name="x_7_0" index="126" value="1.00000"/>
  <variable name="x_8_5" index="149" value="1.00000"/>
  <variable name="x_9_0" index="162" value="1.00000"/>
  <variable name="x_10_12" index="191" value="1.00000"/>
  <variable name="x_11_0" index="198" value="1.00000"/>
  <variable name="x_12_17" index="232" value="1.00000"/>
  <variable name="x_13_0" index="234" value="1.00000"/>
  <variable name="x_14_0" index="252" value="1.00000"/>
  <variable name="x_15_0" index="270" value="1.00000"/>
  <variable name="x_16_0" index="288" value="1.00000"/>
  <variable name="x_17_0" index="306" value="1.00000"/>
  <variable name="x_18_6" index="330" value="1.00000"/>
  <variable name="u_1" index="342" value="31.00000"/>
  <variable name="u_2" index="343" value="19.00000"/>
  <variable name="u_3" index="344" value="2.00000"/>
  <variable name="u_4" index="345" value="19.00000"/>
  <variable name="u_5" index="346" value="29.00000"/>
  <variable name="u_6" index="347" value="31.00000"/>
  <variable name="u_7" index="348" value="30.00000"/>
  <variable name="u_8" index="349" value="12.00000"/>
  <variable name="u_9" index="350" value="15.00000"/>
  <variable name="u_10" index="351" value="10.00000"/>
  <variable name="u_11" index="352" value="31.00000"/>
  <variable name="u_12" index="353" value="30.00000"/>
  <variable name="u_13" index="354" value="20.00000"/>
  <variable name="u_14" index="355" value="31.00000"/>
  <variable name="u_15" index="356" value="31.00000"/>
  <variable name="u_16" index="357" value="31.00000"/>
  <variable name="u_17" index="358" value="31.00000"/>
  <variable name="u_18" index="359" value="28.00000"/>
 </variables>
</CPLEXSolution>
